proyfinal/src/viki/013/experimentInOfficeAgust.take6.output/599bdde2-7f79-4126-970a-c5e926da6566.als.out
Reading from standard input... Use '--help' for help.
============================[ Problem Statistics ]=============================
|                                                                             |
|  Number of variables:         87638                                         |
|  Number of clauses:          161767                                         |
|  Parse time:                   0.04 s                                       |
|                                                                             |
============================[ Search Statistics ]==============================
| Conflicts |          ORIGINAL         |          LEARNT          | Progress |
|           |    Vars  Clauses Literals |    Limit  Clauses Lit/Cl |          |
===============================================================================
|       100 |   63834   110372   275918 |    40469      100     36 | 27.162 % |
|       250 |   63834   110372   275918 |    44516      250     35 | 27.162 % |
|       475 |   63834   110372   275918 |    48968      475     44 | 27.162 % |
|       812 |   63834   110372   275918 |    53865      812     59 | 27.162 % |
|      1318 |   63834   110372   275918 |    59251     1318     58 | 27.162 % |
|      2077 |   63833   110328   275828 |    65176     2075     63 | 27.163 % |
|      3216 |   63832   110325   275822 |    71694     3213     75 | 27.164 % |
|      4924 |   63790   110149   275418 |    78864     3921     82 | 27.212 % |
|      7486 |   63772   110075   275247 |    86750     6482     97 | 27.232 % |
|     11330 |   49941    69112   174395 |    95425     9650     94 | 43.014 % |
|     17096 |   49754    67720   171014 |   104968    14211     77 | 43.228 % |
===============================================================================
restarts              : 63
conflicts             : 17551          (6434 /sec)
decisions             : 53910          (0.00 % random) (19764 /sec)
propagations          : 27382028       (10038515 /sec)
conflict literals     : 1335965        (50.61 % deleted)
Memory used           : 34.95 MB
CPU time              : 2.7277 s

INDETERMINATE
